p cnf 30 30
23 4 8 0
19 30 -28 0
18 -3 12 0
-24 -22 -21 0
-19 21 -8 0
-16 15 14 0
-26 13 -1 0
-10 9 -3 0
-6 28 13 0
-17 -3 -16 0
-1 12 -7 0
28 19 -16 0
-30 27 26 0
-20 -25 -9 0
-5 -22 -10 0
25 -5 19 0
25 -17 -2 0
26 -15 17 0
25 -18 -22 0
11 4 -14 0
-21 15 -5 0
23 -19 27 0
12 26 -25 0
-26 -27 -9 0
-29 -17 -7 0
11 20 -17 0
-1 11 -19 0
-18 14 17 0
6 29 -27 0
10 -17 22 0
